300 300
70
2 10 8
3 2 3
8 7 7
16 12 1
26 15 10
9 17 14
6 2 5
19 14 15
4 1 3
3 15 1
19 18 3
7 9 5
6 7 4
18 15 16
2 6 4
21 17 1
14 6 4
4 1 10
20 4 11
6 2 18
31 10 17
14 18 6
10 1 5
25 12 12
21 5 18
24 19 7
10 8 5
4 2 7
13 4 11
8 1 13
13 7 15
12 8 5
1 6 7
6 8 19
6 7 4
2 2 16
8 19 4
7 3 19
7 6 15
3 11 16
15 15 15
6 16 15
25 15 1
9 19 9
24 8 9
11 7 3
21 13 2
16 17 6
2 8 4
11 2 15
0 2 11
42 17 19
39 17 15
20 17 6
27 16 6
17 11 13
21 3 19
18 11 8
23 18 17
30 12 11
9 2 13
13 19 2
26 11 12
18 4 9
0 10 17
7 14 8
24 13 11
10 14 2
15 6 12
2 1 16
